output/crossbreeding_ilp.mps
NAME crossbreeding_srl_ilp
* Max problem is converted into Min one
ROWS
 N  OBJ
 L  constraint1_6900
 L  constraint1_3502
 L  constraint1_3500
 L  constraint1_3501
 L  constraint1_2151
 L  constraint1_2150
 L  constraint2_6900
 L  constraint2_6901
 L  constraint2_6902
 L  constraint2_6903
 L  constraint2_3500
 L  constraint2_3501
 L  constraint2_3502
 L  constraint2_3503
 L  constraint2_2150
 L  constraint2_2151
 L  constraint2_2152
 L  constraint2_2153
 L  constraint2_5370
 L  constraint2_5371
 L  constraint2_5372
 L  constraint2_5373
 L  constraint2_4500
 L  constraint2_4501
 L  constraint2_4502
 L  constraint2_4503
 L  constraint2_180
 L  constraint2_181
 L  constraint2_182
 L  constraint2_183
 L  constraint2_6060
 L  constraint2_6061
 L  constraint2_6062
 L  constraint2_6063
COLUMNS
    MARKER    'MARKER'                 'INTORG'
    Z_690_0_0  OBJ       -3.2985164383503909e-04
    Z_690_0_0  constraint1_6900  1
    Z_690_0_0  constraint2_6900  1
    Z_690_0_1  OBJ       -2.0694386287549902e-03
    Z_690_0_1  constraint1_6900  1
    Z_690_0_1  constraint2_6901  1
    Z_690_0_2  OBJ       -7.9027531096176451e-01
    Z_690_0_2  constraint1_6900  1
    Z_690_0_2  constraint2_6902  1
    Z_690_0_3  OBJ       -1.1945269985885049e-03
    Z_690_0_3  constraint1_6900  1
    Z_690_0_3  constraint2_6903  1
    Z_690_0_4  OBJ       -1.0613087176705699e-01
    Z_690_0_4  constraint1_6900  1
    Z_350_2_0  OBJ       -1.6501186945314082e-02
    Z_350_2_0  constraint1_3502  1
    Z_350_2_0  constraint2_3500  1
    Z_350_2_1  OBJ       -1.9382583776564245e-02
    Z_350_2_1  constraint1_3502  1
    Z_350_2_1  constraint2_3501  1
    Z_350_2_2  OBJ       -1.7941732438446031e-02
    Z_350_2_2  constraint1_3502  1
    Z_350_2_2  constraint2_3502  1
    Z_350_2_3  OBJ       -3.6014967528180219e-03
    Z_350_2_3  constraint1_3502  1
    Z_350_2_3  constraint2_3503  1
    Z_350_2_4  OBJ       -8.4257300008685754e-01
    Z_350_2_4  constraint1_3502  1
    Z_350_0_0  OBJ       -3.8663226757624548e-04
    Z_350_0_0  constraint1_3500  1
    Z_350_0_0  constraint2_3500  1
    Z_350_0_1  OBJ       -2.7852422444644086e-03
    Z_350_0_1  constraint1_3500  1
    Z_350_0_1  constraint2_3501  1
    Z_350_0_2  OBJ       -5.9430850360413778e-01
    Z_350_0_2  constraint1_3500  1
    Z_350_0_2  constraint2_3502  1
    Z_350_0_3  OBJ       -2.5246126036573653e-03
    Z_350_0_3  constraint1_3500  1
    Z_350_0_3  constraint2_3503  1
    Z_350_0_4  OBJ       -2.9999500928016432e-01
    Z_350_0_4  constraint1_3500  1
    Z_350_1_0  OBJ       -3.8663226757624548e-04
    Z_350_1_0  constraint1_3501  1
    Z_350_1_0  constraint2_3500  1
    Z_350_1_1  OBJ       -2.7852422444644086e-03
    Z_350_1_1  constraint1_3501  1
    Z_350_1_1  constraint2_3501  1
    Z_350_1_2  OBJ       -5.9430850360413778e-01
    Z_350_1_2  constraint1_3501  1
    Z_350_1_2  constraint2_3502  1
    Z_350_1_3  OBJ       -2.5246126036573653e-03
    Z_350_1_3  constraint1_3501  1
    Z_350_1_3  constraint2_3503  1
    Z_350_1_4  OBJ       -2.9999500928016432e-01
    Z_350_1_4  constraint1_3501  1
    Z_215_1_0  OBJ       -5.3812237803255939e-04
    Z_215_1_0  constraint1_2151  1
    Z_215_1_0  constraint2_2150  1
    Z_215_1_1  OBJ       -1.7943661183337456e-02
    Z_215_1_1  constraint1_2151  1
    Z_215_1_1  constraint2_2151  1
    Z_215_1_2  OBJ       -4.5609903839606314e-01
    Z_215_1_2  constraint1_2151  1
    Z_215_1_2  constraint2_2152  1
    Z_215_1_3  OBJ       -6.0387115632921460e-03
    Z_215_1_3  constraint1_2151  1
    Z_215_1_3  constraint2_2153  1
    Z_215_1_4  OBJ       -4.1938046647927468e-01
    Z_215_1_4  constraint1_2151  1
    Z_215_0_0  OBJ       -2.4158080016813948e-03
    Z_215_0_0  constraint1_2150  1
    Z_215_0_0  constraint2_2150  1
    Z_215_0_1  OBJ       -5.2284902114176132e-03
    Z_215_0_1  constraint1_2150  1
    Z_215_0_1  constraint2_2151  1
    Z_215_0_2  OBJ       -5.0454790127488458e-01
    Z_215_0_2  constraint1_2150  1
    Z_215_0_2  constraint2_2152  1
    Z_215_0_3  OBJ       -3.2267668153692065e-03
    Z_215_0_3  constraint1_2150  1
    Z_215_0_3  constraint2_2153  1
    Z_215_0_4  OBJ       -3.8458103369664726e-01
    Z_215_0_4  constraint1_2150  1
    MARKER    'MARKER'                 'INTEND'
RHS
    RHS1      constraint1_6900  1
    RHS1      constraint1_3502  1
    RHS1      constraint1_3500  1
    RHS1      constraint1_3501  1
    RHS1      constraint1_2151  1
    RHS1      constraint1_2150  1
    RHS1      constraint2_6900  1
    RHS1      constraint2_6901  1
    RHS1      constraint2_6902  1
    RHS1      constraint2_6903  1
    RHS1      constraint2_3500  1
    RHS1      constraint2_3501  1
    RHS1      constraint2_3502  1
    RHS1      constraint2_3503  1
    RHS1      constraint2_2150  1
    RHS1      constraint2_2151  1
    RHS1      constraint2_2152  1
    RHS1      constraint2_2153  1
    RHS1      constraint2_5370  1
    RHS1      constraint2_5371  1
    RHS1      constraint2_5372  1
    RHS1      constraint2_5373  1
    RHS1      constraint2_4500  1
    RHS1      constraint2_4501  1
    RHS1      constraint2_4502  1
    RHS1      constraint2_4503  1
    RHS1      constraint2_180  1
    RHS1      constraint2_181  1
    RHS1      constraint2_182  1
    RHS1      constraint2_183  1
    RHS1      constraint2_6060  1
    RHS1      constraint2_6061  1
    RHS1      constraint2_6062  1
    RHS1      constraint2_6063  1
BOUNDS
 UP BND1      Z_690_0_0  1
 UP BND1      Z_690_0_1  1
 UP BND1      Z_690_0_2  1
 UP BND1      Z_690_0_3  1
 UP BND1      Z_690_0_4  1
 UP BND1      Z_350_2_0  1
 UP BND1      Z_350_2_1  1
 UP BND1      Z_350_2_2  1
 UP BND1      Z_350_2_3  1
 UP BND1      Z_350_2_4  1
 UP BND1      Z_350_0_0  1
 UP BND1      Z_350_0_1  1
 UP BND1      Z_350_0_2  1
 UP BND1      Z_350_0_3  1
 UP BND1      Z_350_0_4  1
 UP BND1      Z_350_1_0  1
 UP BND1      Z_350_1_1  1
 UP BND1      Z_350_1_2  1
 UP BND1      Z_350_1_3  1
 UP BND1      Z_350_1_4  1
 UP BND1      Z_215_1_0  1
 UP BND1      Z_215_1_1  1
 UP BND1      Z_215_1_2  1
 UP BND1      Z_215_1_3  1
 UP BND1      Z_215_1_4  1
 UP BND1      Z_215_0_0  1
 UP BND1      Z_215_0_1  1
 UP BND1      Z_215_0_2  1
 UP BND1      Z_215_0_3  1
 UP BND1      Z_215_0_4  1
ENDATA
