output/crossbreeding_ilp.sol
# Solution for model crossbreeding_srl_ilp
# Objective value = 3.4510801916870832e+00
Z_690_0_0 0
Z_690_0_1 0
Z_690_0_2 1
Z_690_0_3 0
Z_690_0_4 0
Z_350_2_0 0
Z_350_2_1 0
Z_350_2_2 0
Z_350_2_3 0
Z_350_2_4 1
Z_350_0_0 0
Z_350_0_1 0
Z_350_0_2 0
Z_350_0_3 0
Z_350_0_4 1
Z_350_1_0 0
Z_350_1_1 0
Z_350_1_2 1
Z_350_1_3 0
Z_350_1_4 0
Z_215_1_0 0
Z_215_1_1 0
Z_215_1_2 0
Z_215_1_3 0
Z_215_1_4 1
Z_215_0_0 0
Z_215_0_1 0
Z_215_0_2 1
Z_215_0_3 0
Z_215_0_4 0
